
  12    4
  10   10   10   10

   0   0   0   0   0   5 2 3 4 7 8 
   8  10  10  10  10   2 6 5 
  10  10  10  10  10   2 11 5 
   3  10  10  10  10   1 5 
   8  10  10  10  10   1 9 
   4  10  10  10  10   1 10 
   9  10  10  10  10   1 10 
   6  10  10  10  10   1 9 
   5  10  10  10  10   1 12
   6  10  10  10  10   1 12
   5  10  10  10  10   1 12
   0   0   0   0   0   0 
